p tw 122 3355
1 14
1 28
1 32
1 33
1 34
1 37
1 38
1 39
1 41
1 42
1 43
1 48
1 50
1 52
1 56
1 58
1 59
1 61
1 62
1 64
1 69
1 70
1 71
1 73
1 75
1 77
1 78
1 80
1 84
1 88
1 93
1 94
1 95
1 97
1 100
1 105
1 106
1 107
1 109
1 113
1 117
1 118
1 119
1 121
1 4
1 6
1 7
1 8
1 12
1 17
1 21
1 22
1 23
1 26
1 27
2 14
2 25
2 29
2 33
2 34
2 36
2 39
2 40
2 42
2 43
2 44
2 49
2 50
2 51
2 53
2 58
2 59
2 60
2 62
2 63
2 65
2 70
2 71
2 72
2 76
2 78
2 80
2 81
2 85
2 86
2 89
2 94
2 95
2 96
2 98
2 102
2 106
2 107
2 108
2 110
2 114
2 118
2 119
2 120
2 5
2 7
2 8
2 9
2 13
2 15
2 18
2 22
2 23
2 24
2 27
35 25
35 28
35 30
35 34
35 36
35 37
35 38
35 40
35 41
35 43
35 44
35 45
35 51
35 52
35 54
35 59
35 60
35 61
35 63
35 64
35 66
35 71
35 72
35 73
35 74
35 77
35 80
35 81
35 82
35 87
35 91
35 95
35 96
35 97
35 99
35 103
35 107
35 108
35 109
35 111
35 115
35 119
35 120
35 121
35 122
35 6
35 8
35 9
35 10
35 16
35 19
35 23
35 24
35 26
35 27
46 14
46 28
46 29
46 31
46 36
46 37
46 39
46 41
46 42
46 44
46 45
46 47
46 50
46 52
46 53
46 55
46 60
46 61
46 62
46 64
46 65
46 67
46 72
46 73
46 75
46 78
46 81
46 82
46 83
46 86
46 88
46 92
46 96
46 97
46 98
46 100
46 104
46 108
46 109
46 110
46 113
46 116
46 120
46 121
46 4
46 7
46 9
46 10
46 11
46 15
46 17
46 20
46 24
46 26
46 27
57 14
57 25
57 29
57 30
57 32
57 37
57 40
57 42
57 43
57 45
57 47
57 48
57 50
57 51
57 53
57 54
57 56
57 61
57 62
57 63
57 65
57 66
57 69
57 73
57 76
57 80
57 82
57 83
57 84
57 86
57 87
57 89
57 93
57 97
57 98
57 99
57 102
57 105
57 109
57 110
57 111
57 114
57 117
57 121
57 5
57 8
57 10
57 11
57 12
57 15
57 16
57 18
57 21
57 26
57 27
68 14
68 25
68 28
68 30
68 31
68 33
68 41
68 43
68 44
68 47
68 48
68 49
68 50
68 51
68 52
68 54
68 55
68 58
68 62
68 63
68 64
68 66
68 67
68 70
68 77
68 81
68 83
68 84
68 85
68 86
68 87
68 88
68 91
68 94
68 98
68 99
68 100
68 103
68 106
68 110
68 111
68 113
68 115
68 118
68 6
68 9
68 11
68 12
68 13
68 15
68 16
68 17
68 19
68 22
68 27
79 25
79 28
79 29
79 31
79 32
79 34
79 38
79 42
79 44
79 45
79 48
79 49
79 51
79 52
79 53
79 55
79 56
79 59
79 63
79 64
79 65
79 67
79 69
79 71
79 74
79 78
79 82
79 84
79 85
79 87
79 88
79 89
79 92
79 95
79 99
79 100
79 102
79 104
79 107
79 111
79 113
79 114
79 116
79 119
79 122
79 7
79 10
79 12
79 13
79 16
79 17
79 18
79 20
79 23
79 27
90 28
90 29
90 30
90 32
90 33
90 36
90 38
90 39
90 43
90 45
90 47
90 49
90 52
90 53
90 54
90 56
90 58
90 60
90 64
90 65
90 66
90 69
90 70
90 72
90 74
90 75
90 80
90 83
90 85
90 88
90 89
90 91
90 93
90 96
90 100
90 102
90 103
90 105
90 108
90 113
90 114
90 115
90 117
90 120
90 122
90 4
90 8
90 11
90 13
90 17
90 18
90 19
90 21
90 24
90 27
101 29
101 30
101 31
101 33
101 34
101 37
101 38
101 39
101 40
101 44
101 47
101 48
101 53
101 54
101 55
101 58
101 59
101 61
101 65
101 66
101 67
101 70
101 71
101 73
101 74
101 75
101 76
101 81
101 84
101 89
101 91
101 92
101 94
101 97
101 102
101 103
101 104
101 106
101 109
101 114
101 115
101 116
101 118
101 121
101 122
101 4
101 5
101 9
101 12
101 18
101 19
101 20
101 22
101 26
101 27
112 14
112 30
112 31
112 32
112 34
112 36
112 39
112 40
112 41
112 45
112 48
112 49
112 50
112 54
112 55
112 56
112 59
112 60
112 62
112 66
112 67
112 69
112 71
112 72
112 75
112 76
112 77
112 82
112 85
112 86
112 91
112 92
112 93
112 95
112 98
112 103
112 104
112 105
112 107
112 110
112 115
112 116
112 117
112 119
112 4
112 5
112 6
112 10
112 13
112 15
112 19
112 20
112 21
112 23
112 27
3 25
3 31
3 32
3 33
3 36
3 37
3 38
3 40
3 41
3 42
3 47
3 49
3 51
3 55
3 56
3 58
3 60
3 61
3 63
3 67
3 69
3 70
3 72
3 73
3 74
3 76
3 77
3 78
3 83
3 87
3 92
3 93
3 94
3 96
3 99
3 104
3 105
3 106
3 108
3 111
3 116
3 117
3 118
3 120
3 122
3 5
3 6
3 7
3 11
3 16
3 20
3 21
3 22
3 24
3 27
14 38
14 40
14 44
14 45
14 47
14 49
14 50
14 51
14 53
14 54
14 55
14 60
14 62
14 64
14 69
14 70
14 71
14 73
14 75
14 77
14 78
14 80
14 84
14 87
14 89
14 91
14 92
14 96
14 100
14 105
14 106
14 107
14 109
14 113
14 117
14 118
14 119
14 121
14 5
14 9
14 10
14 11
14 13
14 16
14 18
14 19
14 20
14 24
14 27
25 38
25 39
25 41
25 45
25 47
25 48
25 51
25 52
25 54
25 55
25 56
25 61
25 62
25 63
25 65
25 70
25 71
25 72
25 76
25 78
25 80
25 81
25 85
25 88
25 91
25 92
25 93
25 97
25 98
25 102
25 106
25 107
25 108
25 110
25 114
25 118
25 119
25 120
25 122
25 6
25 10
25 11
25 12
25 17
25 19
25 20
25 21
25 26
25 27
28 39
28 40
28 42
28 47
28 48
28 49
28 50
28 52
28 53
28 55
28 56
28 58
28 63
28 64
28 66
28 71
28 72
28 73
28 74
28 77
28 80
28 81
28 82
28 86
28 89
28 92
28 93
28 94
28 99
28 103
28 107
28 108
28 109
28 111
28 115
28 119
28 120
28 121
28 4
28 7
28 11
28 12
28 13
28 15
28 18
28 20
28 21
28 22
28 27
29 38
29 40
29 41
29 43
29 48
29 49
29 51
29 53
29 54
29 56
29 58
29 59
29 62
29 64
29 65
29 67
29 72
29 73
29 75
29 78
29 81
29 82
29 83
29 87
29 91
29 93
29 94
29 95
29 98
29 100
29 104
29 108
29 109
29 110
29 113
29 116
29 120
29 121
29 122
29 5
29 8
29 12
29 13
29 16
29 19
29 21
29 22
29 23
29 27
30 38
30 39
30 41
30 42
30 44
30 49
30 52
30 54
30 55
30 58
30 59
30 60
30 62
30 63
30 65
30 66
30 69
30 73
30 76
30 80
30 82
30 83
30 84
30 88
30 92
30 94
30 95
30 96
30 98
30 99
30 102
30 105
30 109
30 110
30 111
30 114
30 117
30 121
30 122
30 4
30 6
30 9
30 13
30 17
30 20
30 22
30 23
30 24
30 27
31 38
31 39
31 40
31 42
31 43
31 45
31 53
31 55
31 56
31 59
31 60
31 61
31 62
31 63
31 64
31 66
31 67
31 70
31 77
31 81
31 83
31 84
31 85
31 89
31 93
31 95
31 96
31 97
31 98
31 99
31 100
31 103
31 106
31 110
31 111
31 113
31 115
31 118
31 122
31 4
31 5
31 7
31 10
31 18
31 21
31 23
31 24
31 26
31 27
32 39
32 40
32 41
32 43
32 44
32 47
32 50
32 54
32 56
32 58
32 60
32 61
32 63
32 64
32 65
32 67
32 69
32 71
32 74
32 78
32 82
32 84
32 85
32 86
32 91
32 94
32 96
32 97
32 99
32 100
32 102
32 104
32 107
32 111
32 113
32 114
32 116
32 119
32 4
32 5
32 6
32 8
32 11
32 15
32 19
32 22
32 24
32 26
32 27
33 40
33 41
33 42
33 44
33 45
33 48
33 50
33 51
33 55
33 58
33 59
33 61
33 64
33 65
33 66
33 69
33 70
33 72
33 74
33 75
33 80
33 83
33 85
33 86
33 87
33 92
33 95
33 97
33 100
33 102
33 103
33 105
33 108
33 113
33 114
33 115
33 117
33 120
33 5
33 6
33 7
33 9
33 12
33 15
33 16
33 20
33 23
33 26
33 27
34 41
34 42
34 43
34 45
34 47
34 49
34 50
34 51
34 52
34 56
34 59
34 60
34 65
34 66
34 67
34 70
34 71
34 73
34 74
34 75
34 76
34 81
34 84
34 86
34 87
34 88
34 93
34 96
34 102
34 103
34 104
34 106
34 109
34 114
34 115
34 116
34 118
34 121
34 6
34 7
34 8
34 10
34 13
34 15
34 16
34 17
34 21
34 24
34 27
36 38
36 42
36 43
36 44
36 47
36 48
36 51
36 52
36 53
36 58
36 60
36 61
36 62
36 66
36 67
36 69
36 71
36 72
36 75
36 76
36 77
36 82
36 85
36 87
36 88
36 89
36 94
36 97
36 98
36 103
36 104
36 105
36 107
36 110
36 115
36 116
36 117
36 119
36 122
36 7
36 8
36 9
36 11
36 16
36 17
36 18
36 22
36 26
36 27
37 39
37 43
37 44
37 45
37 48
37 49
37 50
37 52
37 53
37 54
37 59
37 61
37 63
37 67
37 69
37 70
37 72
37 73
37 74
37 76
37 77
37 78
37 83
37 86
37 88
37 89
37 91
37 95
37 99
37 104
37 105
37 106
37 108
37 111
37 116
37 117
37 118
37 120
37 4
37 8
37 9
37 10
37 12
37 15
37 17
37 18
37 19
37 23
37 27
38 50
38 52
38 56
38 58
38 59
38 61
38 62
38 63
38 65
38 66
38 67
38 72
38 75
38 77
38 78
38 80
38 84
38 87
38 89
38 91
38 92
38 96
38 99
38 102
38 103
38 104
38 108
38 113
38 117
38 118
38 119
38 121
38 5
38 9
38 10
38 11
38 13
38 17
38 21
38 22
38 23
38 26
38 27
39 50
39 51
39 53
39 58
39 59
39 60
39 63
39 64
39 66
39 67
39 69
39 73
39 76
39 78
39 80
39 81
39 85
39 88
39 91
39 92
39 93
39 97
39 100
39 103
39 104
39 105
39 109
39 110
39 114
39 118
39 119
39 120
39 122
39 6
39 10
39 11
39 12
39 15
39 18
39 22
39 23
39 24
39 27
40 51
40 52
40 54
40 59
40 60
40 61
40 62
40 64
40 65
40 67
40 69
40 70
40 74
40 77
40 80
40 81
40 82
40 86
40 89
40 92
40 93
40 94
40 98
40 102
40 104
40 105
40 106
40 111
40 115
40 119
40 120
40 121
40 4
40 7
40 11
40 12
40 13
40 16
40 19
40 23
40 24
40 26
40 27
41 50
41 52
41 53
41 55
41 60
41 61
41 63
41 65
41 66
41 69
41 70
41 71
41 75
41 78
41 81
41 82
41 83
41 87
41 91
41 93
41 94
41 95
41 99
41 103
41 105
41 106
41 107
41 110
41 113
41 116
41 120
41 121
41 122
41 5
41 8
41 12
41 13
41 15
41 17
41 20
41 24
41 26
41 27
42 50
42 51
42 53
42 54
42 56
42 61
42 64
42 66
42 67
42 70
42 71
42 72
42 76
42 80
42 82
42 83
42 84
42 88
42 92
42 94
42 95
42 96
42 100
42 104
42 106
42 107
42 108
42 110
42 111
42 114
42 117
42 121
42 122
42 4
42 6
42 9
42 13
42 15
42 16
42 18
42 21
42 26
42 27
43 50
43 51
43 52
43 54
43 55
43 58
43 65
43 67
43 69
43 71
43 72
43 73
43 77
43 81
43 83
43 84
43 85
43 89
43 93
43 95
43 96
43 97
43 102
43 105
43 107
43 108
43 109
43 110
43 111
43 113
43 115
43 118
43 122
43 4
43 5
43 7
43 10
43 15
43 16
43 17
43 19
43 22
43 27
44 51
44 52
44 53
44 55
44 56
44 59
44 62
44 66
44 69
44 70
44 72
44 73
44 74
44 78
44 82
44 84
44 85
44 86
44 91
44 94
44 96
44 97
44 98
44 103
44 106
44 108
44 109
44 111
44 113
44 114
44 116
44 119
44 4
44 5
44 6
44 8
44 11
44 16
44 17
44 18
44 20
44 23
44 27
45 52
45 53
45 54
45 56
45 58
45 60
45 62
45 63
45 67
45 70
45 71
45 73
45 74
45 75
45 80
45 83
45 85
45 86
45 87
45 92
45 95
45 97
45 98
45 99
45 104
45 107
45 109
45 113
45 114
45 115
45 117
45 120
45 5
45 6
45 7
45 9
45 12
45 17
45 18
45 19
45 21
45 24
45 27
47 53
47 54
47 55
47 58
47 59
47 61
47 62
47 63
47 64
47 69
47 71
47 72
47 74
47 75
47 76
47 81
47 84
47 86
47 87
47 88
47 93
47 96
47 98
47 99
47 100
47 105
47 108
47 114
47 115
47 116
47 118
47 121
47 6
47 7
47 8
47 10
47 13
47 18
47 19
47 20
47 22
47 26
47 27
48 50
48 54
48 55
48 56
48 59
48 60
48 63
48 64
48 65
48 70
48 72
48 73
48 75
48 76
48 77
48 82
48 85
48 87
48 88
48 89
48 94
48 97
48 99
48 100
48 102
48 106
48 109
48 110
48 115
48 116
48 117
48 119
48 122
48 7
48 8
48 9
48 11
48 15
48 19
48 20
48 21
48 23
48 27
49 51
49 55
49 56
49 58
49 60
49 61
49 62
49 64
49 65
49 66
49 71
49 73
49 74
49 76
49 77
49 78
49 83
49 86
49 88
49 89
49 91
49 95
49 98
49 100
49 102
49 103
49 107
49 111
49 116
49 117
49 118
49 120
49 4
49 8
49 9
49 10
49 12
49 16
49 20
49 21
49 22
49 24
49 27
50 62
50 64
50 69
50 70
50 71
50 73
50 76
50 81
50 82
50 83
50 85
50 87
50 89
50 91
50 92
50 96
50 99
50 102
50 103
50 104
50 108
50 111
50 114
50 115
50 116
50 120
50 5
50 9
50 10
50 11
50 13
50 17
50 21
50 22
50 23
50 26
50 27
51 62
51 63
51 65
51 70
51 71
51 72
51 74
51 77
51 82
51 83
51 84
51 88
51 91
51 92
51 93
51 97
51 100
51 103
51 104
51 105
51 109
51 113
51 115
51 116
51 117
51 121
51 122
51 6
51 10
51 11
51 12
51 15
51 18
51 22
51 23
51 24
51 27
52 63
52 64
52 66
52 71
52 72
52 73
52 75
52 78
52 83
52 84
52 85
52 86
52 89
52 92
52 93
52 94
52 98
52 102
52 104
52 105
52 106
52 110
52 114
52 116
52 117
52 118
52 4
52 7
52 11
52 12
52 13
52 16
52 19
52 23
52 24
52 26
52 27
53 62
53 64
53 65
53 67
53 72
53 73
53 74
53 76
53 80
53 84
53 85
53 87
53 91
53 93
53 94
53 95
53 99
53 103
53 105
53 106
53 107
53 111
53 115
53 117
53 118
53 119
53 122
53 5
53 8
53 12
53 13
53 15
53 17
53 20
53 24
53 26
53 27
54 62
54 63
54 65
54 66
54 69
54 73
54 74
54 75
54 77
54 81
54 85
54 88
54 92
54 94
54 95
54 96
54 100
54 104
54 106
54 107
54 108
54 113
54 116
54 118
54 119
54 120
54 122
54 4
54 6
54 9
54 13
54 15
54 16
54 18
54 21
54 26
54 27
55 62
55 63
55 64
55 66
55 67
55 70
55 74
55 75
55 76
55 78
55 82
55 89
55 93
55 95
55 96
55 97
55 102
55 105
55 107
55 108
55 109
55 114
55 117
55 119
55 120
55 121
55 122
55 4
55 5
55 7
55 10
55 15
55 16
55 17
55 19
55 22
55 27
56 63
56 64
56 65
56 67
56 69
56 71
56 75
56 76
56 77
56 80
56 83
56 86
56 91
56 94
56 96
56 97
56 98
56 103
56 106
56 108
56 109
56 110
56 115
56 118
56 120
56 121
56 4
56 5
56 6
56 8
56 11
56 16
56 17
56 18
56 20
56 23
56 27
58 64
58 65
58 66
58 69
58 70
58 72
58 76
58 77
58 78
58 81
58 84
58 86
58 87
58 92
58 95
58 97
58 98
58 99
58 104
58 107
58 109
58 110
58 111
58 116
58 119
58 121
58 5
58 6
58 7
58 9
58 12
58 17
58 18
58 19
58 21
58 24
58 27
59 65
59 66
59 67
59 70
59 71
59 73
59 77
59 78
59 80
59 82
59 85
59 86
59 87
59 88
59 93
59 96
59 98
59 99
59 100
59 105
59 108
59 110
59 111
59 113
59 117
59 120
59 6
59 7
59 8
59 10
59 13
59 18
59 19
59 20
59 22
59 26
59 27
60 62
60 66
60 67
60 69
60 71
60 72
60 74
60 78
60 80
60 81
60 83
60 87
60 88
60 89
60 94
60 97
60 99
60 100
60 102
60 106
60 109
60 111
60 113
60 114
60 118
60 121
60 122
60 7
60 8
60 9
60 11
60 15
60 19
60 20
60 21
60 23
60 27
61 63
61 67
61 69
61 70
61 72
61 73
61 75
61 80
61 81
61 82
61 84
61 86
61 88
61 89
61 91
61 95
61 98
61 100
61 102
61 103
61 107
61 110
61 113
61 114
61 115
61 119
61 4
61 8
61 9
61 10
61 12
61 16
61 20
61 21
61 22
61 24
61 27
62 75
62 77
62 78
62 80
62 84
62 88
62 93
62 94
62 95
62 97
62 99
62 102
62 103
62 104
62 108
62 111
62 114
62 115
62 116
62 120
62 4
62 6
62 7
62 8
62 12
62 17
62 21
62 22
62 23
62 26
62 27
63 76
63 78
63 80
63 81
63 85
63 86
63 89
63 94
63 95
63 96
63 100
63 103
63 104
63 105
63 109
63 113
63 115
63 116
63 117
63 121
63 5
63 7
63 8
63 9
63 13
63 15
63 18
63 22
63 23
63 24
63 27
64 74
64 77
64 80
64 81
64 82
64 87
64 91
64 95
64 96
64 97
64 98
64 102
64 104
64 105
64 106
64 110
64 114
64 116
64 117
64 118
64 122
64 6
64 8
64 9
64 10
64 16
64 19
64 23
64 24
64 26
64 27
65 75
65 78
65 81
65 82
65 83
65 86
65 88
65 92
65 96
65 97
65 99
65 103
65 105
65 106
65 107
65 111
65 115
65 117
65 118
65 119
65 4
65 7
65 9
65 10
65 11
65 15
65 17
65 20
65 24
65 26
65 27
66 76
66 80
66 82
66 83
66 84
66 86
66 87
66 89
66 93
66 97
66 100
66 104
66 106
66 107
66 108
66 113
66 116
66 118
66 119
66 120
66 5
66 8
66 10
66 11
66 12
66 15
66 16
66 18
66 21
66 26
66 27
67 77
67 81
67 83
67 84
67 85
67 86
67 87
67 88
67 91
67 94
67 102
67 105
67 107
67 108
67 109
67 114
67 117
67 119
67 120
67 121
67 6
67 9
67 11
67 12
67 13
67 15
67 16
67 17
67 19
67 22
67 27
69 74
69 78
69 82
69 84
69 85
69 87
69 88
69 89
69 92
69 95
69 98
69 103
69 106
69 108
69 109
69 110
69 115
69 118
69 120
69 121
69 122
69 7
69 10
69 12
69 13
69 16
69 17
69 18
69 20
69 23
69 27
70 74
70 75
70 80
70 83
70 85
70 88
70 89
70 91
70 93
70 96
70 98
70 99
70 104
70 107
70 109
70 110
70 111
70 116
70 119
70 121
70 122
70 4
70 8
70 11
70 13
70 17
70 18
70 19
70 21
70 24
70 27
71 74
71 75
71 76
71 81
71 84
71 89
71 91
71 92
71 94
71 97
71 98
71 99
71 100
71 105
71 108
71 110
71 111
71 113
71 117
71 120
71 122
71 4
71 5
71 9
71 12
71 18
71 19
71 20
71 22
71 26
71 27
72 75
72 76
72 77
72 82
72 85
72 86
72 91
72 92
72 93
72 95
72 99
72 100
72 102
72 106
72 109
72 111
72 113
72 114
72 118
72 121
72 4
72 5
72 6
72 10
72 13
72 15
72 19
72 20
72 21
72 23
72 27
73 74
73 76
73 77
73 78
73 83
73 87
73 92
73 93
73 94
73 96
73 98
73 100
73 102
73 103
73 107
73 110
73 113
73 114
73 115
73 119
73 122
73 5
73 6
73 7
73 11
73 16
73 20
73 21
73 22
73 24
73 27
74 86
74 88
74 93
74 94
74 95
74 97
74 98
74 99
74 102
74 103
74 104
74 108
74 110
74 113
74 117
74 118
74 119
74 121
74 122
74 5
74 9
74 10
74 11
74 13
74 15
74 17
74 21
74 22
74 23
74 26
75 86
75 87
75 89
75 94
75 95
75 96
75 99
75 100
75 103
75 104
75 105
75 109
75 110
75 111
75 114
75 118
75 119
75 120
75 122
75 4
75 6
75 10
75 11
75 12
75 15
75 16
75 18
75 22
75 23
75 24
76 87
76 88
76 91
76 95
76 96
76 97
76 98
76 100
76 102
76 104
76 105
76 106
76 111
76 113
76 115
76 119
76 120
76 121
76 4
76 5
76 7
76 11
76 12
76 13
76 16
76 17
76 19
76 23
76 24
76 26
77 86
77 88
77 89
77 92
77 96
77 97
77 99
77 102
77 103
77 105
77 106
77 107
77 110
77 113
77 114
77 116
77 120
77 121
77 122
77 5
77 6
77 8
77 12
77 13
77 15
77 17
77 18
77 20
77 24
77 26
78 86
78 87
78 89
78 91
78 93
78 97
78 100
78 103
78 104
78 106
78 107
78 108
78 110
78 111
78 114
78 115
78 117
78 121
78 122
78 4
78 6
78 7
78 9
78 13
78 15
78 16
78 18
78 19
78 21
78 26
80 86
80 87
80 88
80 91
80 92
80 94
80 102
80 104
80 105
80 107
80 108
80 109
80 110
80 111
80 113
80 115
80 116
80 118
80 122
80 4
80 5
80 7
80 8
80 10
80 15
80 16
80 17
80 19
80 20
80 22
81 87
81 88
81 89
81 92
81 93
81 95
81 98
81 103
81 105
81 106
81 108
81 109
81 111
81 113
81 114
81 116
81 117
81 119
81 4
81 5
81 6
81 8
81 9
81 11
81 16
81 17
81 18
81 20
81 21
81 23
82 88
82 89
82 91
82 93
82 94
82 96
82 98
82 99
82 104
82 106
82 107
82 109
82 113
82 114
82 115
82 117
82 118
82 120
82 5
82 6
82 7
82 9
82 10
82 12
82 17
82 18
82 19
82 21
82 22
82 24
83 89
83 91
83 92
83 94
83 95
83 97
83 98
83 99
83 100
83 105
83 107
83 108
83 114
83 115
83 116
83 118
83 119
83 121
83 6
83 7
83 8
83 10
83 11
83 13
83 18
83 19
83 20
83 22
83 23
83 26
84 86
84 91
84 92
84 93
84 95
84 96
84 99
84 100
84 102
84 106
84 108
84 109
84 110
84 115
84 116
84 117
84 119
84 120
84 122
84 7
84 8
84 9
84 11
84 12
84 15
84 19
84 20
84 21
84 23
84 24
85 87
85 92
85 93
85 94
85 96
85 97
85 98
85 100
85 102
85 103
85 107
85 109
85 111
85 116
85 117
85 118
85 120
85 121
85 4
85 8
85 9
85 10
85 12
85 13
85 16
85 20
85 21
85 22
85 24
85 26
86 98
86 100
86 105
86 106
86 107
86 109
86 110
86 111
86 114
86 115
86 116
86 120
86 122
86 5
86 9
86 10
86 11
86 13
86 15
86 17
86 21
86 22
86 23
86 26
87 98
87 99
87 102
87 106
87 107
87 108
87 111
87 113
87 115
87 116
87 117
87 121
87 122
87 4
87 6
87 10
87 11
87 12
87 15
87 16
87 18
87 22
87 23
87 24
88 99
88 100
88 103
88 107
88 108
88 109
88 110
88 113
88 114
88 116
88 117
88 118
88 4
88 5
88 7
88 11
88 12
88 13
88 16
88 17
88 19
88 23
88 24
88 26
89 98
89 100
89 102
89 104
89 108
89 109
89 111
89 114
89 115
89 117
89 118
89 119
89 122
89 5
89 6
89 8
89 12
89 13
89 15
89 17
89 18
89 20
89 24
89 26
91 98
91 99
91 102
91 103
91 105
91 109
91 113
91 115
91 116
91 118
91 119
91 120
91 122
91 4
91 6
91 7
91 9
91 13
91 15
91 16
91 18
91 19
91 21
91 26
92 98
92 99
92 100
92 103
92 104
92 106
92 114
92 116
92 117
92 119
92 120
92 121
92 122
92 4
92 5
92 7
92 8
92 10
92 15
92 16
92 17
92 19
92 20
92 22
93 99
93 100
93 102
93 104
93 105
93 107
93 110
93 115
93 117
93 118
93 120
93 121
93 4
93 5
93 6
93 8
93 9
93 11
93 16
93 17
93 18
93 20
93 21
93 23
94 100
94 102
94 103
94 105
94 106
94 108
94 110
94 111
94 116
94 118
94 119
94 121
94 5
94 6
94 7
94 9
94 10
94 12
94 17
94 18
94 19
94 21
94 22
94 24
95 102
95 103
95 104
95 106
95 107
95 109
95 110
95 111
95 113
95 117
95 119
95 120
95 6
95 7
95 8
95 10
95 11
95 13
95 18
95 19
95 20
95 22
95 23
95 26
96 98
96 103
96 104
96 105
96 107
96 108
96 111
96 113
96 114
96 118
96 120
96 121
96 122
96 7
96 8
96 9
96 11
96 12
96 15
96 19
96 20
96 21
96 23
96 24
97 99
97 104
97 105
97 106
97 108
97 109
97 110
97 113
97 114
97 115
97 119
97 121
97 4
97 8
97 9
97 10
97 12
97 13
97 16
97 20
97 21
97 22
97 24
97 26
98 110
98 113
98 117
98 118
98 119
98 121
98 122
98 4
98 6
98 7
98 8
98 12
98 15
98 17
98 21
98 22
98 23
98 26
99 110
99 111
99 114
99 118
99 119
99 120
99 4
99 5
99 7
99 8
99 9
99 13
99 15
99 16
99 18
99 22
99 23
99 24
100 111
100 113
100 115
100 119
100 120
100 121
100 122
100 5
100 6
100 8
100 9
100 10
100 16
100 17
100 19
100 23
100 24
100 26
102 110
102 113
102 114
102 116
102 120
102 121
102 4
102 6
102 7
102 9
102 10
102 11
102 15
102 17
102 18
102 20
102 24
102 26
103 110
103 111
103 114
103 115
103 117
103 121
103 5
103 7
103 8
103 10
103 11
103 12
103 15
103 16
103 18
103 19
103 21
103 26
104 110
104 111
104 113
104 115
104 116
104 118
104 6
104 8
104 9
104 11
104 12
104 13
104 15
104 16
104 17
104 19
104 20
104 22
105 111
105 113
105 114
105 116
105 117
105 119
105 122
105 7
105 9
105 10
105 12
105 13
105 16
105 17
105 18
105 20
105 21
105 23
106 113
106 114
106 115
106 117
106 118
106 120
106 122
106 4
106 8
106 10
106 11
106 13
106 17
106 18
106 19
106 21
106 22
106 24
107 114
107 115
107 116
107 118
107 119
107 121
107 122
107 4
107 5
107 9
107 11
107 12
107 18
107 19
107 20
107 22
107 23
107 26
108 110
108 115
108 116
108 117
108 119
108 120
108 4
108 5
108 6
108 10
108 12
108 13
108 15
108 19
108 20
108 21
108 23
108 24
109 111
109 116
109 117
109 118
109 120
109 121
109 122
109 5
109 6
109 7
109 11
109 13
109 16
109 20
109 21
109 22
109 24
109 26
110 122
110 5
110 9
110 10
110 11
110 13
110 15
110 16
110 18
110 19
110 20
110 24
111 122
111 4
111 6
111 10
111 11
111 12
111 16
111 17
111 19
111 20
111 21
111 26
113 4
113 5
113 7
113 11
113 12
113 13
113 15
113 17
113 18
113 20
113 21
113 22
114 122
114 5
114 6
114 8
114 12
114 13
114 16
114 18
114 19
114 21
114 22
114 23
115 122
115 4
115 6
115 7
115 9
115 13
115 17
115 19
115 20
115 22
115 23
115 24
116 122
116 4
116 5
116 7
116 8
116 10
116 18
116 20
116 21
116 23
116 24
116 26
117 4
117 5
117 6
117 8
117 9
117 11
117 15
117 19
117 21
117 22
117 24
117 26
118 5
118 6
118 7
118 9
118 10
118 12
118 15
118 16
118 20
118 22
118 23
118 26
119 6
119 7
119 8
119 10
119 11
119 13
119 15
119 16
119 17
119 21
119 23
119 24
120 122
120 7
120 8
120 9
120 11
120 12
120 16
120 17
120 18
120 22
120 24
120 26
121 4
121 8
121 9
121 10
121 12
121 13
121 15
121 17
121 18
121 19
121 23
121 26
122 15
122 17
122 21
122 22
122 23
122 26
4 15
4 16
4 18
4 22
4 23
4 24
5 16
5 17
5 19
5 23
5 24
5 26
6 15
6 17
6 18
6 20
6 24
6 26
7 15
7 16
7 18
7 19
7 21
7 26
8 15
8 16
8 17
8 19
8 20
8 22
9 16
9 17
9 18
9 20
9 21
9 23
10 17
10 18
10 19
10 21
10 22
10 24
11 18
11 19
11 20
11 22
11 23
11 26
12 15
12 19
12 20
12 21
12 23
12 24
13 16
13 20
13 21
13 22
13 24
13 26
